set I := 0 1 2 3 4 5 6 7 8 9 10 11 12 13 14 15 16 17 18 19 20 21 22 23 24 25 26 27 28 29;

param cap := 150;

param: size:=
    0 100
    1 98
    2 96
    3 92
    4 90
    5 85
    6 83
    7 80
    8 79
    9 76
    10 73
    11 70
    12 67
    13 65
    14 62
    15 59
    16 57
    17 53
    18 49
    19 46
    20 45
    21 42
    22 40
    23 38
    24 35
    25 33
    26 30
    27 28
    28 25
    29 23;
